(set-info :source loris-7.ddns.comp.nus.edu.sg/~project/hip/) 
(set-info :smt-lib-version 2.0) 
(set-info :status  sat) 
;Variables declarations
(declare-fun b () Int)
(declare-fun ba2 () Int)
(declare-fun n () Int)
(declare-fun bn () Int)
(declare-fun m () Int)
(declare-fun bm () Int)
(declare-fun v_node_135_1692_primed () Int)
(declare-fun right_134_2648 () Int)
(declare-fun lr () Int)
(declare-fun left_133_2645 () Int)
(declare-fun l () Int)
(declare-fun k2 () Int)
(declare-fun cn () Int)
(declare-fun ba3 () Int)
(declare-fun cm () Int)
(declare-fun r () Int)
(declare-fun an () Int)
(declare-fun ba1 () Int)
(declare-fun am () Int)
(declare-fun ll () Int)
(declare-fun k2_primed () Int)
(declare-fun k1_primed () Int)
;Relations declarations
;Axioms assertions
;Antecedent
(assert (= b ba2))
(assert (= n bn))
(assert (= m bm))
(assert (= v_node_135_1692_primed lr))
(assert (= right_134_2648 lr))
(assert (= left_133_2645 l))
(assert (= k1_primed l))
(assert (= k2_primed k2))
(assert (or (and (and (and (< r 1) (= cm 0)) (= cn 0)) (= ba3 1)) (and (and (and (and (and (<= 0 ba3) (<= (+ (- 0 cn) 2) ba3)) (<= ba3 cn)) (<= ba3 2)) (<= 1 cm)) (> r 0))))
(assert (or (and (and (and (< ll 1) (= am 0)) (= an 0)) (= ba1 1)) (and (and (and (and (and (<= 0 ba1) (<= (+ (- 0 an) 2) ba1)) (<= ba1 an)) (<= ba1 2)) (<= 1 am)) (> ll 0))))
(assert (= k2_primed 1))
(assert (= k1_primed 2))
(assert (not (= k2_primed k1_primed)))
;Negation of Consequence
(assert (not false))
(check-sat)